unsat
(:binary-propagations  17
 :conflicts            1
 :final-checks         1
 :max-generation       1
 :max-memory           22.85
 :memory               20.86
 :mk-bool-var          110
 :mk-clause            21
 :mk-clause-binary     92
 :num-allocs           3268222
 :num-checks           1
 :propagations         17
 :quant-instantiations 15
 :restarts             1
 :rlimit-count         34308
 :time                 0.01)
